Minimize
err

Subject To
89.99295692 f@b + 1057.53388745 s@a + 796.33721581 s@b + 97.3288822736 info@b + 239.89338688 GPS@b + 1676.65295021 comm@a + 1310.97955812 comm@b + 507.05432234 q@a >= 3393.0
89.99295692 f@b + 1057.53388745 s@a + 796.33721581 s@b + 97.3288822736 info@b + 239.89338688 GPS@b + 1676.65295021 comm@a + 1310.97955812 comm@b + 507.05432234 q@a - 3393.0 err <= 3393.0
22.6456360167 f@b + 1057.53388745 s@a + 796.33721581 s@b + 97.3288822736 info@b + 1676.65295021 comm@a + 1310.97955812 comm@b + 507.05432234 q@a >= 3060.0
22.6456360167 f@b + 1057.53388745 s@a + 796.33721581 s@b + 97.3288822736 info@b + 1676.65295021 comm@a + 1310.97955812 comm@b + 507.05432234 q@a - 3060.0 err <= 3060.0
1057.53388745 s@a + 796.33721581 s@b + 2.0 q@a + 89.99295692 f@b + 97.3288822736 info@b + 239.89338688 GPS@b + 1676.65295021 comm@a + 1310.97955812 comm@b >= 2967.0
1057.53388745 s@a + 796.33721581 s@b + 2.0 q@a + 89.99295692 f@b + 97.3288822736 info@b + 239.89338688 GPS@b + 1676.65295021 comm@a + 1310.97955812 comm@b - 2967.0 err <= 2967.0
1057.53388745 s@a + 796.33721581 s@b + 2.0 q@a + 22.6456360167 f@b + 97.3288822736 info@b + 1676.65295021 comm@a + 1310.97955812 comm@b >= 2913.0
1057.53388745 s@a + 796.33721581 s@b + 2.0 q@a + 22.6456360167 f@b + 97.3288822736 info@b + 1676.65295021 comm@a + 1310.97955812 comm@b - 2913.0 err <= 2913.0
583.62521752 s@a + 596.06564834 s@b + 2.0 q@a + 0.0 f@b + 97.3288822736 info@b + 1676.65295021 comm@a + 1310.97955812 comm@b >= 2170.0
583.62521752 s@a + 596.06564834 s@b + 2.0 q@a + 0.0 f@b + 97.3288822736 info@b + 1676.65295021 comm@a + 1310.97955812 comm@b - 2170.0 err <= 2170.0
583.62521752 s@a + 596.06564834 s@b + 2.0 q@a + 0.0 f@b + 0.0 info@b + 1676.65295021 comm@a + 1310.97955812 comm@b >= 2090.0
583.62521752 s@a + 596.06564834 s@b + 2.0 q@a + 0.0 f@b + 0.0 info@b + 1676.65295021 comm@a + 1310.97955812 comm@b - 2090.0 err <= 2090.0
583.62521752 s@a + 596.06564834 s@b + 2.0 q@a + 0.0 f@b + 0.0 info@b + 239.89338688 GPS@b + 1676.65295021 comm@a + 1310.97955812 comm@b >= 2463.0
583.62521752 s@a + 596.06564834 s@b + 2.0 q@a + 0.0 f@b + 0.0 info@b + 239.89338688 GPS@b + 1676.65295021 comm@a + 1310.97955812 comm@b - 2463.0 err <= 2463.0
385.26779364 s@a + 280.73680673 s@b + 355.89523615 q@a + 89.99295692 f@b + 97.3288822736 info@b + 239.89338688 GPS@b + 1676.65295021 comm@a + 1310.97955812 comm@b >= 2378.0
385.26779364 s@a + 280.73680673 s@b + 355.89523615 q@a + 89.99295692 f@b + 97.3288822736 info@b + 239.89338688 GPS@b + 1676.65295021 comm@a + 1310.97955812 comm@b - 2378.0 err <= 2378.0
385.26779364 s@a + 280.73680673 s@b + 355.89523615 q@a + 0.0 f@b + 97.3288822736 info@b + 1676.65295021 comm@a + 1310.97955812 comm@b >= 2100.0
385.26779364 s@a + 280.73680673 s@b + 355.89523615 q@a + 0.0 f@b + 97.3288822736 info@b + 1676.65295021 comm@a + 1310.97955812 comm@b - 2100.0 err <= 2100.0
385.26779364 s@a + 280.73680673 s@b + 1.0 q@a + 89.99295692 f@b + 97.3288822736 info@b + 239.89338688 GPS@b + 1676.65295021 comm@a + 1310.97955812 comm@b >= 2278.0
385.26779364 s@a + 280.73680673 s@b + 1.0 q@a + 89.99295692 f@b + 97.3288822736 info@b + 239.89338688 GPS@b + 1676.65295021 comm@a + 1310.97955812 comm@b - 2278.0 err <= 2278.0
385.26779364 s@a + 280.73680673 s@b + 0.0 q@a + 0.0 f@b + 97.3288822736 info@b + 1676.65295021 comm@a + 1310.97955812 comm@b >= 1963.0
385.26779364 s@a + 280.73680673 s@b + 0.0 q@a + 0.0 f@b + 97.3288822736 info@b + 1676.65295021 comm@a + 1310.97955812 comm@b - 1963.0 err <= 1963.0
0.0 s@a + 0.0 s@b + 0.0 q@a + 0.0 f@b + 97.3288822736 info@b + 239.89338688 GPS@b + 1676.65295021 comm@a + 1310.97955812 comm@b >= 1656.0
0.0 s@a + 0.0 s@b + 0.0 q@a + 0.0 f@b + 97.3288822736 info@b + 239.89338688 GPS@b + 1676.65295021 comm@a + 1310.97955812 comm@b - 1656.0 err <= 1656.0
0.0 s@a + 0.0 s@b + 0.0 q@a + 0.0 f@b + 97.3288822736 info@b + 1676.65295021 comm@a + 1310.97955812 comm@b >= 1636.0
0.0 s@a + 0.0 s@b + 0.0 q@a + 0.0 f@b + 97.3288822736 info@b + 1676.65295021 comm@a + 1310.97955812 comm@b - 1636.0 err <= 1636.0
Bounds
info@b < 0.9
info@b > 0
q@a < 0.9
q@a > 0
s@a < 0.9
s@a > 0
s@b < 0.9
s@b > 0
f@b < 0.9
f@b > 0
comm@b < 0.9
comm@b > 0
comm@a < 0.9
comm@a > 0
GPS@b < 0.9
GPS@b > 0
1 = 1
End